
Gurobi 9.0.1 (linux64) logging started Thu Apr 30 19:16:10 2020

Gurobi Optimizer version 9.0.1 build v9.0.1rc0 (linux64)
Optimize a model with 32222 rows, 27380 columns and 603960 nonzeros
Model fingerprint: 0xabfcfb23
Variable types: 0 continuous, 27380 integer (27342 binary)
Coefficient statistics:
  Matrix range     [1e+00, 2e+01]
  Objective range  [1e+00, 1e+02]
  Bounds range     [1e+00, 1e+00]
  RHS range        [1e+00, 1e+00]

User MIP start produced solution with objective 1186 (0.96s)
Loaded user MIP start with objective 1186

Presolve removed 14186 rows and 9389 columns (presolve time = 5s) ...
Presolve removed 14228 rows and 9449 columns (presolve time = 10s) ...
Presolve removed 14228 rows and 9449 columns
Presolve time: 10.90s
Presolved: 17994 rows, 17931 columns, 501020 nonzeros
Variable types: 0 continuous, 17931 integer (17895 binary)

Root simplex log...

Iteration    Objective       Primal Inf.    Dual Inf.      Time
       0    0.0000000e+00   1.940000e+02   0.000000e+00     14s
    1566    5.2600005e+02   1.707900e+04   0.000000e+00     15s
    3558    5.2977789e+02   1.074341e+06   0.000000e+00     20s
    5384    5.3580002e+02   8.293969e+03   0.000000e+00     25s
    6795    5.4184133e+02   7.021971e+03   0.000000e+00     30s
    8123    5.4626177e+02   2.835828e+04   0.000000e+00     35s
    9119    5.4721887e+02   4.205666e+03   0.000000e+00     40s
   10115    5.4943055e+02   4.612236e+03   0.000000e+00     45s
   11194    5.5059300e+02   7.537593e+03   0.000000e+00     50s
   12278    5.5248680e+02   2.732044e+03   0.000000e+00     55s
   13191    5.5358100e+02   2.727698e+03   0.000000e+00     60s
   14104    5.5478739e+02   4.787738e+03   0.000000e+00     65s
   15105    5.5689116e+02   1.572112e+03   0.000000e+00     70s
   16184    5.5877465e+02   6.504189e+02   0.000000e+00     75s
   17070    5.5959656e+02   3.206531e+02   0.000000e+00     80s
   17939    5.6016809e+02   2.097489e+03   0.000000e+00     85s
   18877    5.6118984e+02   2.474482e+02   0.000000e+00     90s
   19813    5.6195283e+02   4.764534e+02   0.000000e+00     95s
   20755    5.6235055e+02   4.447918e+02   0.000000e+00    100s
   21562    5.6283447e+02   7.058572e+02   0.000000e+00    105s
   22570    5.6318746e+02   1.702479e+02   0.000000e+00    111s
   23260    5.6335078e+02   3.456005e+03   0.000000e+00    115s
   23812    5.6343092e+02   0.000000e+00   0.000000e+00    118s

Root relaxation: objective 5.634309e+02, 23812 iterations, 106.31 seconds

    Nodes    |    Current Node    |     Objective Bounds      |     Work
 Expl Unexpl |  Obj  Depth IntInf | Incumbent    BestBd   Gap | It/Node Time

     0     0  563.43092    0 1522 1186.00000  563.43092  52.5%     -  125s
     0     0  596.50121    0 1586 1186.00000  596.50121  49.7%     -  234s
     0     0  597.07654    0 1616 1186.00000  597.07654  49.7%     -  254s
     0     0  597.09258    0 1576 1186.00000  597.09258  49.7%     -  259s
     0     0  597.09258    0 1571 1186.00000  597.09258  49.7%     -  261s
     0     0  607.44334    0 1754 1186.00000  607.44334  48.8%     -  339s
     0     0  608.67295    0 1718 1186.00000  608.67295  48.7%     -  383s
     0     0  608.79081    0 1708 1186.00000  608.79081  48.7%     -  393s
     0     0  608.83352    0 1720 1186.00000  608.83352  48.7%     -  402s
     0     0  608.83391    0 1704 1186.00000  608.83391  48.7%     -  404s
     0     0  618.52437    0 1774 1186.00000  618.52437  47.8%     -  510s
     0     0  621.34050    0 1819 1186.00000  621.34050  47.6%     -  578s
     0     0  621.71248    0 1837 1186.00000  621.71248  47.6%     -  599s
     0     0  621.73459    0 1812 1186.00000  621.73459  47.6%     -  604s
     0     0  621.73592    0 1796 1186.00000  621.73592  47.6%     -  606s
     0     0  628.34382    0 1838 1186.00000  628.34382  47.0%     -  744s
     0     0  628.81652    0 1842 1186.00000  628.81652  47.0%     -  798s
     0     0  628.83566    0 1830 1186.00000  628.83566  47.0%     -  805s
     0     0  628.83849    0 1819 1186.00000  628.83849  47.0%     -  808s
     0     0  629.41478    0 1868 1186.00000  629.41478  46.9%     -  851s
     0     0  629.45860    0 1841 1186.00000  629.45860  46.9%     -  875s
     0     0  629.46741    0 1837 1186.00000  629.46741  46.9%     -  881s
     0     0  630.24036    0 1920 1186.00000  630.24036  46.9%     -  936s
     0     0  630.42401    0 1893 1186.00000  630.42401  46.8%     -  962s
     0     0  630.43426    0 1902 1186.00000  630.43426  46.8%     -  968s
     0     0  630.97568    0 1974 1186.00000  630.97568  46.8%     - 1007s
     0     0  631.11726    0 1969 1186.00000  631.11726  46.8%     - 1050s
     0     0  631.16001    0 1986 1186.00000  631.16001  46.8%     - 1059s
     0     0  631.16690    0 1992 1186.00000  631.16690  46.8%     - 1065s
     0     0  631.58638    0 1945 1186.00000  631.58638  46.7%     - 1101s
     0     0  631.86015    0 1891 1186.00000  631.86015  46.7%     - 1133s
     0     0  631.88854    0 1861 1186.00000  631.88854  46.7%     - 1140s
     0     0  631.91398    0 1884 1186.00000  631.91398  46.7%     - 1146s
     0     0  631.92113    0 1884 1186.00000  631.92113  46.7%     - 1150s
     0     0  632.24258    0 1959 1186.00000  632.24258  46.7%     - 1179s
     0     0  632.26394    0 1957 1186.00000  632.26394  46.7%     - 1186s
     0     0  632.27067    0 1976 1186.00000  632.27067  46.7%     - 1191s
     0     0  632.56323    0 1964 1186.00000  632.56323  46.7%     - 1213s
     0     0  632.59782    0 1952 1186.00000  632.59782  46.7%     - 1224s
     0     0  632.60366    0 1923 1186.00000  632.60366  46.7%     - 1229s
     0     0  632.67004    0 1950 1186.00000  632.67004  46.7%     - 1245s
     0     0  632.69641    0 1930 1186.00000  632.69641  46.7%     - 1257s
     0     0  632.70007    0 1982 1186.00000  632.70007  46.7%     - 1262s
     0     0  632.82875    0 1963 1186.00000  632.82875  46.6%     - 1283s
     0     0  632.82875    0 1947 1186.00000  632.82875  46.6%     - 1298s
     0     2  632.83502    0 1945 1186.00000  632.83502  46.6%     - 1489s
     1     3  632.98066    1 1889 1186.00000  632.83502  46.6%  2616 1505s
     2     4  653.63671    1 1638 1186.00000  632.99063  46.6% 18184 1738s
     3     5  634.64809    2 1867 1186.00000  632.99410  46.6% 14704 1796s
     4     6  638.37507    2 1685 1186.00000  634.64817  46.5% 14792 1899s
     5     7  634.76602    3 1799 1186.00000  634.64871  46.5% 12224 1912s
     6     8  654.26754    3 1685 1186.00000  634.76602  46.5% 15933 2135s
     7     9  635.02038    4 1806 1186.00000  634.76602  46.5% 14191 2160s
     8    10  656.02640    4 1698 1186.00000  635.02038  46.5% 19068 2503s
     9    11  635.18661    5 1836 1186.00000  635.02038  46.5% 17198 2519s
    10    12  657.24027    5 1566 1186.00000  635.19145  46.4% 19045 2740s
    11    13  635.96593    6 1808 1186.00000  635.20833  46.4% 17950 2786s
    12    14  647.75885    6 1625 1186.00000  635.96593  46.4% 18275 2924s
    13    15  636.57752    7 1814 1186.00000  635.96593  46.4% 17311 2958s
    14    16  654.46520    7 1629 1186.00000  636.57752  46.3% 18192 3131s
    15    17  636.60847    8 1814 1186.00000  636.57752  46.3% 17045 3138s
    16    18  655.18564    8 1599 1186.00000  636.60847  46.3% 18898 3456s
    17    19  636.73503    9 1817 1186.00000  636.60847  46.3% 17919 3470s

Cutting planes:
  Cover: 1
  MIR: 108
  StrongCG: 9
  GUB cover: 2
  Zero half: 50
  RLT: 447

Explored 18 nodes (464546 simplex iterations) in 3600.04 seconds
Thread count was 1 (of 40 available processors)

Solution count 1: 1186 

Time limit reached
Best objective 1.186000000000e+03, best bound 6.370000000000e+02, gap 46.2901%

User-callback calls 33739, time in user-callback 0.12 sec
